(declare-fun var0 () String)
(assert (RegexIn var0 (RegexConcat (RegexUnion (RegexPlus (Str2Reg "B")) (RegexUnion (Str2Reg "C") (Str2Reg "DD"))) (RegexConcat (RegexStar (RegexPlus (Str2Reg "AAA"))) (RegexConcat (RegexStar (RegexStar (Str2Reg "zz"))) (RegexConcat (RegexUnion (RegexStar (Str2Reg "xxx")) (RegexStar (Str2Reg "yyy"))) (RegexConcat (RegexPlus (RegexPlus (Str2Reg "www"))) (RegexConcat (RegexUnion (RegexPlus (Str2Reg "t")) (RegexUnion (Str2Reg "uu") (Str2Reg "v"))) (RegexConcat (RegexPlus (RegexUnion (Str2Reg "rrr") (Str2Reg "sss"))) (RegexConcat (RegexUnion (RegexStar (Str2Reg "o")) (RegexUnion (Str2Reg "pp") (Str2Reg "qq"))) (RegexConcat (RegexPlus (RegexPlus (Str2Reg "nn"))) (RegexConcat (RegexUnion (RegexStar (Str2Reg "kkk")) (RegexUnion (Str2Reg "lll") (Str2Reg "mmm"))) (RegexConcat (RegexUnion (RegexStar (Str2Reg "i")) (RegexPlus (Str2Reg "jj"))) (RegexConcat (RegexStar (RegexStar (Str2Reg "hhh"))) (RegexConcat (RegexPlus (RegexStar (Str2Reg "ggg"))) (RegexConcat (RegexPlus (RegexStar (Str2Reg "ff"))) (RegexConcat (RegexUnion (RegexPlus (Str2Reg "ddd")) (RegexStar (Str2Reg "e"))) (RegexConcat (RegexUnion (RegexUnion (Str2Reg "aa") (Str2Reg "bbb")) (RegexStar (Str2Reg "c"))) (RegexConcat (RegexUnion (RegexPlus (Str2Reg "88")) (RegexPlus (Str2Reg "999"))) (RegexConcat (RegexPlus (RegexPlus (Str2Reg "77"))) (RegexConcat (RegexUnion (RegexStar (Str2Reg "444")) (RegexUnion (Str2Reg "55") (Str2Reg "6"))) (RegexConcat (RegexUnion (RegexStar (Str2Reg "1")) (RegexUnion (Str2Reg "2") (Str2Reg "333"))) (RegexStar (RegexStar (Str2Reg "000")))))))))))))))))))))))))
(assert (not (RegexIn var0 (RegexConcat (RegexPlus (RegexUnion (Str2Reg "x") (Str2Reg "yy"))) (RegexConcat (RegexStar (RegexUnion (Str2Reg "vvv") (Str2Reg "www"))) (RegexConcat (RegexStar (RegexStar (Str2Reg "u"))) (RegexConcat (RegexPlus (RegexStar (Str2Reg "ttt"))) (RegexConcat (RegexUnion (RegexPlus (Str2Reg "r")) (RegexPlus (Str2Reg "ss"))) (RegexConcat (RegexStar (RegexUnion (Str2Reg "pp") (Str2Reg "q"))) (RegexConcat (RegexUnion (RegexStar (Str2Reg "nn")) (RegexStar (Str2Reg "ooo"))) (RegexConcat (RegexUnion (RegexUnion (Str2Reg "kk") (Str2Reg "lll")) (RegexStar (Str2Reg "mmm"))) (RegexConcat (RegexUnion (RegexPlus (Str2Reg "ii")) (RegexStar (Str2Reg "jjj"))) (RegexConcat (RegexStar (RegexPlus (Str2Reg "hh"))) (RegexConcat (RegexPlus (RegexPlus (Str2Reg "g"))) (RegexConcat (RegexUnion (RegexPlus (Str2Reg "ee")) (RegexPlus (Str2Reg "fff"))) (RegexConcat (RegexStar (RegexStar (Str2Reg "dd"))) (RegexConcat (RegexStar (RegexUnion (Str2Reg "b") (Str2Reg "c"))) (RegexConcat (RegexUnion (RegexPlus (Str2Reg "9")) (RegexPlus (Str2Reg "a"))) (RegexConcat (RegexPlus (RegexPlus (Str2Reg "888"))) (RegexConcat (RegexPlus (RegexStar (Str2Reg "77"))) (RegexConcat (RegexUnion (RegexPlus (Str2Reg "555")) (RegexPlus (Str2Reg "66"))) (RegexConcat (RegexUnion (RegexPlus (Str2Reg "333")) (RegexPlus (Str2Reg "4"))) (RegexConcat (RegexUnion (RegexPlus (Str2Reg "111")) (RegexStar (Str2Reg "2"))) (RegexStar (RegexPlus (Str2Reg "0"))))))))))))))))))))))))))
(check-sat)